sat
(
  (define-fun G () String
    "bacccacabc")
  (define-fun B () String
    "babacaccbabcbb")
  (define-fun I () String
    "a")
  (define-fun E () String
    "aacbccc")
  (define-fun D () String
    "acc")
)
